Running for instance ./models/r208.txt
Generating routes...
Execution time:  2.845824  seconds
Academic license - for non-commercial use only
Warning: constraint name "Cliente esta na rota x1" has a space
Optimize a model with 26 rows, 10000 columns and 119498 nonzeros
Variable types: 0 continuous, 10000 integer (0 binary)
Coefficient statistics:
  Matrix range     [1e+00, 1e+00]
  Objective range  [2e+01, 7e+02]
  Bounds range     [1e+00, 1e+00]
  RHS range        [1e+00, 2e+01]
Found heuristic solution: objective 754.4869615
Presolve removed 1 rows and 639 columns
Presolve time: 0.12s
Presolved: 25 rows, 9361 columns, 101513 nonzeros
Variable types: 0 continuous, 9361 integer (9361 binary)

Root relaxation: objective 4.976097e+02, 95 iterations, 0.02 seconds

    Nodes    |    Current Node    |     Objective Bounds      |     Work
 Expl Unexpl |  Obj  Depth IntInf | Incumbent    BestBd   Gap | It/Node Time

     0     0  497.60967    0   25  754.48696  497.60967  34.0%     -    0s
H    0     0                     688.2381956  497.60967  27.7%     -    0s
H    0     0                     635.0761341  497.60967  21.6%     -    0s
H    0     0                     601.1194433  497.60967  17.2%     -    0s
H    0     0                     530.2433606  497.60967  6.15%     -    0s
     0     0  499.27959    0   25  530.24336  499.27959  5.84%     -    0s
     0     0  499.27959    0   25  530.24336  499.27959  5.84%     -    0s

Explored 1 nodes (113 simplex iterations) in 0.36 seconds
Thread count was 8 (of 8 available processors)

Solution count 5: 530.243 601.119 635.076 ... 754.487

Optimal solution found (tolerance 1.00e-04)
Best objective 5.302433605659e+02, best bound 5.302433605659e+02, gap 0.0000%

Routes:
15 23 9
12 1 10 20 11 8 19 18 5 17 16 14 22 4 21 25 24 3 7 6 13 2

Distance: 530.243360566
Execution time:  4.139931  seconds
